sat
(:added-eqs                   10342
 :arith-bound-propagations-lp 11187
 :arith-conflicts             511
 :arith-fixed-eqs             2292
 :arith-lower                 53506
 :arith-make-feasible         15311
 :arith-max-columns           870
 :arith-max-rows              441
 :arith-offset-eqs            8188
 :arith-upper                 38725
 :binary-propagations         62303
 :conflicts                   766
 :decisions                   12216
 :del-clause                  293
 :final-checks                1
 :max-memory                  29.63
 :memory                      20.18
 :minimized-lits              5181
 :mk-bool-var                 3799
 :mk-clause                   4525
 :mk-clause-binary            5304
 :num-allocs                  52940299
 :num-checks                  1
 :propagations                103689
 :restarts                    3
 :rlimit-count                1423266
 :solve-eqs-elim-vars         355
 :solve-eqs-steps             2203
 :time                        0.56
 :total-time                  0.57)
